NAME : rnd12_50.tsp
TYPE : TSP
DIMENSION : 50
EDGE_WEIGHT_TYPE : EUC_2D
NODE_COORD_SECTION
1 908 144
2 276 885
3 163 97
4 45 12
5 571 768
6 856 82
7 69 851
8 990 189
9 905 238
10 510 429
11 882 994
12 243 105
13 317 960
14 895 812
15 2 383
16 515 149
17 767 22
18 136 751
19 69 124
20 655 641
21 843 699
22 852 727
23 686 296
24 277 967
25 966 461
26 241 563
27 565 5
28 214 323
29 435 570
30 795 989
31 220 700
32 551 583
33 863 664
34 138 560
35 696 803
36 560 923
37 495 467
38 453 895
39 34 134
40 770 317
41 965 458
42 721 992
43 676 971
44 519 650
45 699 807
46 918 776
47 931 187
48 642 97
49 449 790
50 306 796
